
******************************************************************************
This program contains Ipopt, a library for large-scale nonlinear optimization.
 Ipopt is released as open source code under the Eclipse Public License (EPL).
         For more information visit http://projects.coin-or.org/Ipopt

This version of Ipopt was compiled from source code available at
    https://github.com/IDAES/Ipopt as part of the Institute for the Design of
    Advanced Energy Systems Process Systems Engineering Framework (IDAES PSE
    Framework) Copyright (c) 2018-2019. See https://github.com/IDAES/idaes-pse.

This version of Ipopt was compiled using HSL, a collection of Fortran codes
    for large-scale scientific computation.  All technical papers, sales and
    publicity material resulting from use of the HSL codes within IPOPT must
    contain the following acknowledgement:
        HSL, a collection of Fortran codes for large-scale scientific
        computation. See http://www.hsl.rl.ac.uk.
******************************************************************************

This is Ipopt version 3.13.2, running with linear solver ma27.

Number of nonzeros in equality constraint Jacobian...:     1210
Number of nonzeros in inequality constraint Jacobian.:        0
Number of nonzeros in Lagrangian Hessian.............:     1376

Total number of variables............................:      480
                     variables with only lower bounds:      128
                variables with lower and upper bounds:      288
                     variables with only upper bounds:        0
Total number of equality constraints.................:      477
Total number of inequality constraints...............:        0
        inequality constraints with only lower bounds:        0
   inequality constraints with lower and upper bounds:        0
        inequality constraints with only upper bounds:        0

iter    objective    inf_pr   inf_du lg(mu)  ||d||  lg(rg) alpha_du alpha_pr  ls
   0  0.0000000e+00 2.32e-01 2.84e-14  -1.0 0.00e+00    -  0.00e+00 0.00e+00   0
   1  1.3183831e+01 1.22e-01 2.22e+06  -1.0 3.42e+05    -  1.31e-01 9.90e-01h  1
   2  1.3740398e+01 1.22e-01 2.22e+06  -1.0 1.13e+07    -  8.85e-02 1.49e-03h  8
   3  8.6452612e+00 4.77e-02 5.39e+07  -1.0 2.69e+05  -4.0 6.98e-01 9.90e-01h  1
   4  9.0133231e+00 4.76e-02 5.35e+07  -1.0 2.24e+06  -4.5 3.58e-01 5.20e-03h  7
   5  9.6359417e+00 4.75e-02 5.20e+07  -1.0 2.24e+06  -4.1 3.72e-01 8.73e-03h  6
   6  1.0202437e+01 4.73e-02 5.14e+07  -1.0 2.22e+06  -4.5 4.34e-01 7.23e-03h  6
   7  1.0941761e+01 4.72e-02 5.01e+07  -1.0 2.14e+06  -4.1 6.82e-01 9.32e-03h  6
   8  1.1543277e+01 4.70e-02 4.96e+07  -1.0 2.06e+06  -4.6 4.47e-01 6.77e-03h  6
   9  1.2360504e+01 4.69e-02 4.85e+07  -1.0 2.00e+06  -4.2 9.53e-01 9.38e-03h  6
iter    objective    inf_pr   inf_du lg(mu)  ||d||  lg(rg) alpha_du alpha_pr  ls
  10  1.2852616e+01 4.68e-02 4.83e+07  -1.0 1.88e+06  -4.6 8.62e-01 5.22e-03h  7
  11  1.3712506e+01 4.67e-02 4.75e+07  -1.0 1.84e+06  -4.2 9.90e-01 9.02e-03h  6
  12  1.4371939e+01 4.65e-02 4.72e+07  -1.0 2.35e+06  -4.7 9.90e-01 6.30e-03h  7
  13  1.5041655e+01 4.63e-02 4.69e+07  -1.0 2.02e+06  -4.3 1.00e+00 6.08e-03h  7
  14  2.7204671e+02 3.57e+00 3.49e+09  -1.0 3.06e+06  -4.7 4.47e-01 5.20e-01w  1
  15  2.5548208e+02 2.13e+01 4.83e+09  -1.0 5.83e+05  -2.5 3.64e-01 3.14e-01w  1
  16  2.3735977e+02 1.92e+01 1.14e+10  -1.0 4.33e+05  -2.1 1.80e-01 6.93e-01w  1
  17  1.5557761e+01 4.61e-02 4.68e+07  -1.0 4.19e+07  -2.6 4.47e-01 4.06e-03h  7
  18  1.6468400e+01 4.61e-02 4.04e+07  -1.0 1.78e+06  -3.0 1.00e+00 9.07e-03h  6
  19  1.7215084e+01 4.59e-02 3.97e+07  -1.0 1.87e+06  -3.5 6.87e-01 6.41e-03h  7
iter    objective    inf_pr   inf_du lg(mu)  ||d||  lg(rg) alpha_du alpha_pr  ls
  20  1.7993680e+01 4.56e-02 3.95e+07  -1.0 2.87e+06  -4.0 8.90e-01 5.25e-03h  8
  21  1.8716667e+01 4.54e-02 3.94e+07  -1.0 3.30e+06  -4.5 4.21e-01 4.53e-03h  8
  22  1.9538783e+01 4.52e-02 3.93e+07  -1.0 2.72e+06  -4.0 1.00e+00 5.42e-03h  8
  23  2.0185311e+01 4.50e-02 3.91e+07  -1.0 3.13e+06  -4.5 4.31e-01 4.04e-03h  8
  24  2.1044086e+01 4.48e-02 3.90e+07  -1.0 2.59e+06  -4.1 1.00e+00 5.54e-03h  8
  25  2.1439946e+01 4.47e-02 3.89e+07  -1.0 2.89e+06  -4.6 4.77e-01 2.61e-03h  8
  26  2.2163224e+01 4.45e-02 3.88e+07  -1.0 2.43e+06  -4.1 1.00e+00 4.64e-03h  8
  27  6.5481641e+01 4.23e+00 1.63e+09  -1.0 8.60e+06  -4.6 2.83e-01 1.10e-01w  1
  28  1.7939580e+02 3.50e+00 6.22e+09  -1.0 1.01e+06  -3.3 3.23e-01 9.45e-01w  1
  29  3.4250484e+02 4.25e+00 1.55e+11  -1.0 2.17e+06  -2.9 7.71e-02 7.32e-01w  1
iter    objective    inf_pr   inf_du lg(mu)  ||d||  lg(rg) alpha_du alpha_pr  ls
  30  2.2307269e+01 4.44e-02 3.88e+07  -1.0 6.43e+05  -2.4 2.83e-01 1.71e-03h  6
  31  2.3611427e+01 4.43e-02 3.05e+07  -1.0 1.49e+06  -2.9 9.59e-01 1.14e-02h  6
  32  2.4631914e+01 4.40e-02 3.01e+07  -1.0 1.60e+06  -3.4 1.00e+00 7.55e-03h  6
  33  2.5585147e+01 4.37e-02 2.98e+07  -1.0 1.90e+06  -3.9 8.40e-01 5.96e-03h  6
  34  2.6936468e+01 4.34e-02 3.11e+07  -1.0 1.62e+06  -3.4 1.00e+00 9.68e-03h  6
  35  2.7926473e+01 4.32e-02 3.13e+07  -1.0 2.53e+06  -3.9 9.75e-01 5.50e-03h  8
  36  2.8590339e+01 4.30e-02 3.11e+07  -1.0 3.59e+06  -4.4 4.84e-01 4.07e-03h  7
  37  2.8585794e+01 4.30e-02 3.10e+07  -1.0 5.85e+08  -4.0 1.57e-03 7.25e-06f  8
  38  2.9613939e+01 4.27e-02 3.24e+07  -1.0 1.41e+06  -3.5 1.00e+00 7.44e-03h  6
  39  2.9771353e+01 4.27e-02 3.19e+07  -1.0 8.90e+06  -4.0 1.04e-01 9.10e-04h  7
iter    objective    inf_pr   inf_du lg(mu)  ||d||  lg(rg) alpha_du alpha_pr  ls
  40  1.0246537e+02 1.33e+01 4.01e+09  -1.0 1.65e+06  -3.6 1.00e+00 3.26e-01w  1
  41  1.3153620e+02 1.16e+01 7.25e+09  -1.0 5.07e+05  -3.2 2.08e-01 9.90e-01w  1
  42  1.0720920e+02 1.10e+00 1.74e+09  -1.0 1.35e+05  -2.7 3.01e-01 9.90e-01w  1
  43  3.1308253e+01 4.23e-02 3.45e+07  -1.0 1.29e+05  -3.2 1.00e+00 1.02e-02h  5
  44  3.2141954e+01 4.22e-02 3.47e+07  -1.0 2.06e+06  -3.7 1.00e+00 4.93e-03h  8
  45  3.3135993e+01 4.19e-02 3.47e+07  -1.0 2.61e+06  -4.2 1.00e+00 5.09e-03h  8
  46  3.3992568e+01 4.17e-02 3.50e+07  -1.0 1.57e+06  -3.7 1.00e+00 5.68e-03h  7
  47  3.4897645e+01 4.15e-02 3.49e+07  -1.0 2.38e+06  -4.2 8.11e-01 4.89e-03h  8
  48  3.5491313e+01 4.14e-02 3.38e+07  -1.0 2.34e+06  -3.8 3.68e-01 4.05e-03h  6
  49  3.6800312e+01 4.11e-02 3.61e+07  -1.0 1.13e+06  -3.4 1.00e+00 1.00e-02h  6
iter    objective    inf_pr   inf_du lg(mu)  ||d||  lg(rg) alpha_du alpha_pr  ls
  50  3.8301503e+01 4.08e-02 3.64e+07  -1.0 1.95e+06  -3.8 1.00e+00 8.49e-03h  7
  51  3.9261952e+01 4.06e-02 3.62e+07  -1.0 2.75e+06  -4.3 4.79e-01 5.32e-03h  7
  52  4.0524903e+01 4.03e-02 4.06e+07  -1.0 1.04e+06  -3.0 1.00e+00 1.03e-02h  6
  53  7.0804094e+01 2.11e+01 6.37e+08  -1.0 1.60e+06  -3.5 1.00e+00 1.70e-01w  1
  54  1.3973516e+02 2.32e+00 6.95e+09  -1.0 6.05e+05  -3.0 2.00e-01 9.90e-01w  1
  55  1.1609205e+02 1.28e+00 5.97e+09  -1.0 3.91e+05  -2.6 2.38e-01 9.90e-01w  1
  56  4.1294624e+01 4.01e-02 4.05e+07  -1.0 2.71e+05  -2.2 1.00e+00 5.32e-03h  5
  57  4.2728542e+01 3.99e-02 5.05e+07  -1.0 1.02e+06  -2.7 1.00e+00 1.20e-02h  6
  58  4.4004183e+01 3.96e-02 5.39e+07  -1.0 1.25e+06  -3.1 1.00e+00 8.67e-03h  6
  59  4.5170872e+01 3.94e-02 5.39e+07  -1.0 1.96e+06  -3.6 1.00e+00 6.26e-03h  8
iter    objective    inf_pr   inf_du lg(mu)  ||d||  lg(rg) alpha_du alpha_pr  ls
  60  4.6260075e+01 3.92e-02 5.37e+07  -1.0 2.21e+06  -4.1 9.46e-01 5.41e-03h  8
  61  4.7618687e+01 3.90e-02 5.82e+07  -1.0 9.95e+05  -2.8 1.00e+00 1.22e-02h  6
  62  4.8341559e+01 3.87e-02 5.79e+07  -1.0 1.29e+06  -3.3 1.00e+00 5.79e-03h  6
  63  4.9481157e+01 3.85e-02 6.14e+07  -1.0 8.66e+05  -2.8 1.00e+00 9.69e-03h  6
  64  5.0580642e+01 3.82e-02 6.20e+07  -1.0 1.08e+06  -3.3 1.00e+00 7.72e-03h  6
  65  5.0917493e+01 3.81e-02 7.22e+07  -1.0 9.51e+05  -1.1 1.00e+00 3.37e-03h  8
  66  8.0410372e+01 2.45e+01 2.87e+12  -1.0 8.69e+05   0.3 1.00e+00 2.96e-01w  1
  67  5.5357979e+01 1.73e+01 4.72e+12  -1.0 3.08e+06  -0.2 1.37e-01 2.95e-01w  1
  68  4.6545472e+01 2.23e+00 1.08e+12  -1.0 1.38e+05   1.1 2.06e-01 9.90e-01w  1
  69  5.0940459e+01 3.81e-02 7.30e+07  -1.0 2.67e+05   0.6 1.00e+00 2.89e-04h 10
iter    objective    inf_pr   inf_du lg(mu)  ||d||  lg(rg) alpha_du alpha_pr  ls
  70  5.0943117e+01 3.81e-02 7.27e+07  -1.0 1.21e+06   0.2 2.38e-01 8.71e-05h 12
  71  5.0956502e+01 3.81e-02 7.26e+07  -1.0 8.15e+05   0.6 7.87e-01 2.12e-04h 12
  72  5.0958588e+01 3.81e-02 7.25e+07  -1.0 8.30e+05   0.1 2.45e-01 8.66e-05h 13
  73  5.0978048e+01 3.81e-02 7.22e+07  -1.0 8.02e+05   0.5 7.00e-01 3.33e-04h 12
  74  5.0988243e+01 3.81e-02 7.22e+07  -1.0 7.68e+05   0.1 5.00e-01 2.08e-04h 13
  75  5.0992270e+01 3.80e-02 7.21e+07  -1.0 7.92e+05  -0.4 4.20e-01 1.92e-04h 13
  76  5.0983705e+01 3.80e-02 7.22e+07  -1.0 4.36e+06  -0.9 6.41e-01 4.99e-05f 14
  77  5.1006340e+01 3.80e-02 7.22e+07  -1.0 7.72e+05  -0.5 1.00e+00 4.61e-04h 12
  78  5.1024504e+01 3.80e-02 7.23e+07  -1.0 7.36e+05  -1.0 1.00e+00 4.83e-04h 12
  79  1.4638170e+02 4.90e+00 6.97e+11  -1.0 8.84e+05  -1.4 1.00e+00 9.90e-01w  1
iter    objective    inf_pr   inf_du lg(mu)  ||d||  lg(rg) alpha_du alpha_pr  ls
  80  1.4744758e+02 1.53e+00 1.16e+12  -1.0 6.70e+05  -1.0 2.61e-01 9.90e-01w  1
  81  1.4388890e+02 6.77e-01 1.75e+11  -1.0 4.05e+05  -0.6 4.25e-01 9.90e-01w  1
  82  5.1028147e+01 3.80e-02 7.24e+07  -1.0 5.45e+05  -1.1 1.00e+00 4.83e-04h 11
  83  5.1057942e+01 3.80e-02 7.24e+07  -1.0 7.46e+05  -1.5 1.00e+00 9.53e-04h 11
  84  5.1040507e+01 3.79e-02 7.24e+07  -1.0 9.83e+05  -2.0 3.47e-01 7.53e-04f 11
  85  5.1203521e+01 3.78e-02 7.22e+07  -1.0 7.86e+05  -1.6 1.00e+00 3.61e-03h  9
  86  5.1261807e+01 3.76e-02 7.17e+07  -1.0 7.81e+05  -2.1 5.61e-01 7.24e-03h  8
  87  5.2615821e+01 3.65e-02 1.63e+08  -1.0 7.45e+05  -1.6 1.00e+00 3.01e-02h  6
  88  5.2130357e+01 3.76e-02 3.69e+08  -1.0 8.10e+05  -2.1 5.38e-01 5.37e-02f  5
  89  5.3991519e+01 3.54e-02 5.36e+08  -1.0 4.52e+05  -1.7 1.00e+00 6.19e-02h  5
iter    objective    inf_pr   inf_du lg(mu)  ||d||  lg(rg) alpha_du alpha_pr  ls
  90  5.2501062e+01 3.38e-02 1.65e+09  -1.0 7.78e+05  -2.2 1.00e+00 1.24e-01f  4
  91  6.8991106e+01 2.92e-02 1.45e+10  -1.0 2.21e+05  -1.7 1.00e+00 9.90e-01H  1
  92  6.7530570e+01 4.14e-03 6.65e+08  -1.0 4.36e+04  -2.2 8.99e-01 9.90e-01h  1
  93  6.7463166e+01 4.10e-05 5.40e+06  -1.0 6.57e+02  -2.7 9.89e-01 9.90e-01h  1
  94  6.7462511e+01 4.10e-07 3.18e+08  -1.0 6.63e+00  -3.2 9.92e-01 9.90e-01h  1
  95  6.7462485e+01 4.10e-09 1.87e+11  -1.0 2.04e-01  -3.6 1.00e+00 9.90e-01h  1
In iteration 95, 32 Slacks too small, adjusting variable bounds
  96  6.7462428e+01 4.10e-11 1.87e+13  -1.0 7.69e-01  -4.1 1.00e+00 9.90e-01h  1
  97  6.7087333e+01 3.87e-06 1.84e+15  -1.0 1.27e+06    -  1.00e+00 3.91e-03f  9
  98  6.6899625e+01 4.84e-06 1.84e+15  -1.0 1.27e+06    -  1.00e+00 1.95e-03f 10
  99  6.6806170e+01 5.07e-06 1.84e+15  -1.0 1.27e+06    -  1.00e+00 9.77e-04f 11
iter    objective    inf_pr   inf_du lg(mu)  ||d||  lg(rg) alpha_du alpha_pr  ls
 100  6.6712750e+01 5.31e-06 1.83e+15  -1.0 1.27e+06    -  1.00e+00 9.77e-04f 11
 101  6.6666133e+01 5.37e-06 1.83e+15  -1.0 1.26e+06    -  1.00e+00 4.88e-04f 12
 102  3.9556737e+01 1.07e+01 2.52e+02  -1.0 1.26e+06    -  1.00e+00 1.00e+00f  1
 103  2.8325186e+01 7.59e-01 3.43e+02  -1.0 4.45e+05    -  1.00e+00 1.00e+00f  1
 104  2.7674291e+01 7.37e-01 2.64e+12  -1.7 2.58e+06    -  2.29e-01 5.38e-02f  4
 105  3.0971841e+01 7.25e-01 6.39e+12  -1.7 1.97e+06    -  4.31e-01 8.86e-02h  3
 106  2.6930404e+01 8.37e-02 1.41e+12  -1.7 2.01e+05  -4.6 7.87e-01 1.00e+00f  1
 107  2.6558726e+01 4.66e-03 9.62e+04  -1.7 7.13e+04  -5.1 1.00e+00 1.00e+00f  1
 108  2.6658893e+01 3.27e-05 2.63e+04  -3.8 5.36e+03  -5.6 1.00e+00 1.00e+00h  1
 109  2.6655964e+01 4.12e-09 2.71e+00  -3.8 9.96e+01  -6.0 1.00e+00 1.00e+00h  1
iter    objective    inf_pr   inf_du lg(mu)  ||d||  lg(rg) alpha_du alpha_pr  ls
 110  2.6645941e+01 5.06e-09 3.30e+05  -8.6 1.56e+02  -6.5 1.00e+00 1.00e+00f  1
 111  1.6787811e+00 1.88e-01 3.40e+00  -8.6 7.67e+05    -  1.00e+00 1.00e+00f  1
 112  3.2108559e+00 1.15e-02 1.98e+00  -8.6 1.29e+05    -  1.00e+00 1.00e+00h  1
 113  3.1873318e+00 4.20e-05 2.74e-02  -8.6 6.84e+03    -  1.00e+00 1.00e+00h  1
 114  3.1884065e+00 3.38e-07 6.14e-06  -8.6 2.65e+02    -  1.00e+00 1.00e+00h  1
 115  3.1884085e+00 1.18e-11 5.82e-11  -8.6 2.64e-01    -  1.00e+00 1.00e+00h  1

Number of Iterations....: 115

                                   (scaled)                 (unscaled)
Objective...............:   3.1884084535830928e+00    3.1884084535830928e+00
Dual infeasibility......:   5.8207660913467407e-11    5.8207660913467407e-11
Constraint violation....:   1.1818102052529866e-11    1.1818102052529866e-11
Complementarity.........:   2.5059035596800626e-09    2.5059035596800626e-09
Overall NLP error.......:   1.1818102052529866e-11    2.5059035596800626e-09


Number of objective function evaluations             = 769
Number of objective gradient evaluations             = 116
Number of equality constraint evaluations            = 769
Number of inequality constraint evaluations          = 0
Number of equality constraint Jacobian evaluations   = 116
Number of inequality constraint Jacobian evaluations = 0
Number of Lagrangian Hessian evaluations             = 115
Total CPU secs in IPOPT (w/o function evaluations)   =      0.202
Total CPU secs in NLP function evaluations           =      4.984

EXIT: Optimal Solution Found.
